20	5
0	10	13	7	6	1	15	18	2	5	3	4
1	2	20	17
2	2	20	14
3	1	19
4	1	9
5	1	16
6	1	8
7	1	8
8	1	12
9	1	10
10	2	16	11
11	1	14
12	2	10	20
13	1	21
14	1	21
15	1	21
16	1	21
17	1	21
18	1	21
19	1	21
20	1	21
21	0
0	0	0	0	0	0	0
1	6	3	1	3	5	5
2	2	4	1	2	2	1
3	5	2	3	1	2	4
4	1	3	4	1	5	1
5	1	1	3	2	2	1
6	3	1	2	3	3	3
7	6	2	3	4	5	2
8	7	5	2	3	5	5
9	7	5	4	5	2	2
10	4	1	3	4	3	3
11	3	1	1	3	3	3
12	4	2	3	3	4	5
13	6	3	1	4	2	2
14	5	2	1	2	3	4
15	1	1	4	3	5	3
16	2	5	3	4	1	3
17	5	5	3	3	3	1
18	7	3	5	4	5	2
19	4	4	2	4	1	1
20	10	5	3	5	1	2
21	0	0	0	0	0	0
5	5	5	5	5
